500
750
600
599
599
599
598
596
595
594
592
592
588
588
587
585
584
584
583
583
582
581
581
581
580
579
576
575
574
573
571
569
567
565
565
564
564
563
562
562
561
560
556
556
555
553
552
551
550
550
549
547
547
547
546
545
545
544
544
543
541
538
537
537
536
535
535
533
532
525
524
522
522
521
521
521
520
519
519
515
513
509
509
509
507
506
505
505
505
504
503
503
501
499
499
497
497
496
496
495
495
494
494
493
493
492
491
491
490
487
486
486
484
484
483
479
479
478
476
474
472
471
470
470
469
468
468
467
467
467
467
466
466
465
461
459
459
458
458
458
457
456
456
454
452
452
451
451
447
446
446
445
445
444
444
444
443
442
442
441
440
440
440
439
438
438
438
437
436
436
435
433
433
433
433
433
432
432
432
431
426
426
426
422
421
421
421
420
418
418
417
415
412
411
410
410
410
409
407
405
404
404
404
404
404
403
402
402
402
402
399
399
399
398
398
397
397
397
396
395
395
395
395
394
393
392
391
391
391
389
389
388
388
387
386
386
384
384
383
383
380
380
380
378
377
376
374
373
372
370
369
369
367
366
366
365
361
361
361
360
359
357
355
354
353
351
350
350
350
349
349
349
348
348
345
345
344
344
344
343
343
342
340
340
339
338
338
338
338
337
336
333
333
331
330
329
328
328
328
327
327
327
327
327
326
325
325
325
325
324
323
322
321
321
321
320
320
320
320
317
317
317
315
314
312
312
312
310
308
305
304
303
301
301
301
300
299
299
298
296
296
295
295
294
292
292
292
292
290
288
287
286
286
285
283
282
282
282
281
281
280
279
278
278
277
277
277
277
276
275
273
273
272
272
272
269
268
267
267
266
264
260
260
257
254
252
250
250
250
249
249
249
248
247
247
245
245
243
243
241
239
239
239
237
237
237
236
236
234
233
232
232
230
228
228
227
224
224
223
223
221
221
219
219
218
217
216
216
215
215
213
213
213
212
212
212
211
209
208
208
207
206
204
203
203
201
200
200
196
196
196
196
195
195
193
193
192
191
191
190
190
189
189
188
187
187
186
185
184
183
183
182
182
182
180
180
179
177
177
176
174
174
174
173
173
172
169
167
166
165
163
162
161
160
160
158
157
157
153
153
152
151
